
Gurobi 11.0.0 (win64, C++) logging started Tue Jul 29 11:48:31 2025

Set parameter TokenServer to value "141.76.38.119"
### START HEURISTIC APPROACH APPROACH ###
ProblemVariant: 1
### START PREPROCESSING ###
## Start start solution procedure ##
Not enough vehicles for start solution, copying existing vehicle(s)...
Copied 1 vehicle(s). Total vehicles now: 7
Start solution with 7 Vehicles and total costs 444.42 in 1.2045 s.
### END PREPROCESSING ###
Route 0 0-13-14-15-0 : weight util 0.931034 | volume util 0.663778 | infeasible with packing heuristic | feasible with CP model
Route 1 0-1-2-0 : weight util 0.827586 | volume util 0.277467 | infeasible with packing heuristic | feasible with CP model
Route 2 0-7-9-3-4-0 : weight util 0.965517 | volume util 0.385956 | infeasible with packing heuristic | feasible with CP model
Route 3 0-17-8-0 : weight util 0.965517 | volume util 0.092444 | infeasible with packing heuristic | feasible with CP model
Route 4 0-16-18-10-12-0 : weight util 0.982759 | volume util 0.250267 | infeasible with packing heuristic | feasible with CP model
Route 5 0-6-19-11-20-5-0 : weight util 1.000000 | volume util 0.541422 | infeasible with packing heuristic | feasible with CP model
